Solving original (integer) problem with strategy gdp.hull_exact...
--- Job model.gms Start 02/14/26 22:29:46 52.2.0 d8e408be LEX-LEG x86 64bit/Linux
--- Applying:
    /package/gams/52.2/gmsprmun.txt
--- GAMS Parameters defined
    Input /local/scratch/a/sgusev/repos/k_means/data/gams_gurobi_gdp.hull_exact/no_mode/2026-02-14_22-29-45/original/model.gms
    Output /local/scratch/a/sgusev/repos/k_means/data/gams_gurobi_gdp.hull_exact/no_mode/2026-02-14_22-29-45/original/output.lst
    ScrDir /local/scratch/a/sgusev/repos/k_means/data/gams_gurobi_gdp.hull_exact/no_mode/2026-02-14_22-29-45/original/225a/
    SysDir /package/gams/52.2/
    CurDir /local/scratch/a/sgusev/repos/k_means/data/gams_gurobi_gdp.hull_exact/no_mode/2026-02-14_22-29-45/original/
    LogOption 3
    AppendLog 1
Licensee: David Bernal / SECQUOIA Research Group         G251008+0003Ac-GEN
          Purdue University, Davidson School of Chemical EngineeringDCE4838
          225a/gamslice.dat
          5a82958a-fbca-4a23
          node:66820903 mem:995 cores:48 ipport:34337 v:2                  
          Evaluation license: Not for commercial or production use
          The time-limited license stops working on : Jun 30, 2027
System information: 48 physical cores and 995 Gb physical memory detected
GAMS 52.2.0   Copyright (C) 1987-2025 GAMS Development. All rights reserved
--- Starting compilation
--- model.gms(3463) 2 Mb
--- $echo File /local/scratch/a/sgusev/repos/k_means/data/gams_gurobi_gdp.hull_exact/no_mode/2026-02-14_22-29-45/original/gurobi.opt
--- model.gms(5091) 2 Mb
--- Starting execution: elapsed 0:00:00.018
--- model.gms(3472) 3 Mb
--- Generating MINLP model GAMS_MODEL
--- model.gms(3476) 6 Mb
---   1,054 rows  508 columns  2,557 non-zeroes
---   1,680 nl-code  300 nl-non-zeroes
---   60 discrete-columns
--- Range statistics (absolute non-zero finite values)
--- RHS       [min, max] : [ 1.000E+00, 1.000E+00] - Zero values observed as well
--- Bound     [min, max] : [ 1.000E+00, 9.000E+01] - Zero values observed as well
--- Matrix    [min, max] : [ 1.000E+00, 9.000E+01] - Zero values observed as well
--- model.gms(3476) 4 Mb
--- Executing GUROBI (Solvelink=5): elapsed 0:00:00.025
Reading parameter(s) from "/local/scratch/a/sgusev/repos/k_means/data/gams_gurobi_gdp.hull_exact/no_mode/2026-02-14_22-29-45/original/gurobi.opt"
>>  NonConvex 2
>>  Threads 1
>>  MIPGap 1e-06
>>  MIPGapAbs 1e-10
>>  FeasibilityTol 1e-06
>>  OptimalityTol 1e-06
>>  IntFeasTol 1e-05
Finished reading from "/local/scratch/a/sgusev/repos/k_means/data/gams_gurobi_gdp.hull_exact/no_mode/2026-02-14_22-29-45/original/gurobi.opt"

... GRB_LICENSE_FILE = /local/scratch/a/sgusev/gurobi.lic

    Gurobi           52.2.0 d8e408be Dec 8, 2025           LEG x86 64bit/Linux    

... GAMS/Gurobi Link license.
... GMO Q Extraction (ThreePass): 0.00s

    Gurobi Optimizer version 13.0.0 build v13.0.0rc1 (linux64 - "Oracle Linux Server 9.7")
    
    CPU model: AMD EPYC 7643 48-Core Processor, instruction set [SSE2|AVX|AVX2]
    Thread count: 48 physical cores, 96 logical processors, using up to 1 threads
    
    Non-default parameters:
    TimeLimit  300
    MIPGap  1e-06
    LogToConsole  0
    NonConvex  2
    Threads  1
    
    Optimize a model with 993 rows, 507 columns and 2241 nonzeros (Min)
    Model fingerprint: 0x3a8fc4ab
    Model has 15 linear objective coefficients
    Model has 60 quadratic constraints
    Variable types: 447 continuous, 60 integer (0 binary)
    Coefficient statistics:
      Matrix range     [1e+00, 9e+01]
      QMatrix range    [4e-02, 2e+00]
      Objective range  [1e+00, 1e+00]
      Bounds range     [1e+00, 9e+01]
      RHS range        [1e+00, 1e+00]
    Presolve removed 180 rows and 195 columns
    Presolve time: 0.01s
    Presolved: 1277 rows, 732 columns, 3410 nonzeros
    Presolved model has 180 quadratic constraint(s)
    Variable types: 672 continuous, 60 integer (60 binary)
    
    Root relaxation: objective 0.000000e+00, 315 iterations, 0.00 seconds (0.00 work units)
    
        Nodes    |    Current Node    |     Objective Bounds      |     Work
     Expl Unexpl |  Obj  Depth IntInf | Incumbent    BestBd   Gap | It/Node Time
    
         0     0    0.00000    0    2          -    0.00000      -     -    0s
    H    0     0                       7.9323940    0.00000   100%     -    0s
         0     0    0.00000    0    6    7.93239    0.00000   100%     -    0s
         0     0    0.00000    0   26    7.93239    0.00000   100%     -    0s
         0     0    0.00000    0   22    7.93239    0.00000   100%     -    0s
         0     0    0.00000    0   31    7.93239    0.00000   100%     -    0s
         0     0    0.00000    0    8    7.93239    0.00000   100%     -    0s
         0     0    0.00000    0   16    7.93239    0.00000   100%     -    0s
    H    0     0                       5.9907042    0.00000   100%     -    0s
    *    0     0               0       5.9907042    0.00000   100%     -    0s
         0     0    0.00000    0   18    5.99070    0.00000   100%     -    0s
         0     0    0.00000    0   24    5.99070    0.00000   100%     -    0s
         0     0    0.00000    0   14    5.99070    0.00000   100%     -    0s
         0     0    0.00000    0   20    5.99070    0.00000   100%     -    0s
         0     0    0.00000    0   16    5.99070    0.00000   100%     -    0s
         0     0    0.00000    0   22    5.99070    0.00000   100%     -    0s
    H    0     0                       4.7322750    0.00000   100%     -    0s
    *    0     0               0       4.7322750    0.00000   100%     -    0s
         0     0    0.00000    0   20    4.73228    0.00000   100%     -    0s
         0     0    0.00000    0   27    4.73228    0.00000   100%     -    0s
         0     0    0.00000    0   16    4.73228    0.00000   100%     -    0s
         0     0    0.00000    0   24    4.73228    0.00000   100%     -    0s
         0     0    0.00000    0   16    4.73228    0.00000   100%     -    0s
         0     0    0.00000    0   14    4.73228    0.00000   100%     -    0s
         0     0    0.00000    0   14    4.73228    0.00000   100%     -    0s
         0     0    0.00000    0   22    4.73228    0.00000   100%     -    0s
         0     0    0.00000    0   22    4.73228    0.00000   100%     -    0s
         0     0    0.00000    0   22    4.73228    0.00000   100%     -    0s
         0     0    0.00000    0   20    4.73228    0.00000   100%     -    0s
         0     0    0.00000    0   20    4.73228    0.00000   100%     -    0s
         0     0    0.00000    0   16    4.73228    0.00000   100%     -    0s
         0     0    0.00000    0   24    4.73228    0.00000   100%     -    0s
         0     0    0.00000    0   24    4.73228    0.00000   100%     -    0s
         0     0    0.00000    0   24    4.73228    0.00000   100%     -    0s
         0     0    0.00000    0   16    4.73228    0.00000   100%     -    0s
         0     0    0.00000    0   20    4.73228    0.00000   100%     -    0s
         0     0    0.00000    0   20    4.73228    0.00000   100%     -    0s
         0     0    0.00000    0   20    4.73228    0.00000   100%     -    0s
         0     0    0.00000    0   20    4.73228    0.00000   100%     -    0s
         0     0    0.00000    0   20    4.73228    0.00000   100%     -    0s
         0     0    0.00000    0   18    4.73228    0.00000   100%     -    0s
         0     0    0.00000    0   18    4.73228    0.00000   100%     -    0s
         0     0    0.00000    0   16    4.73228    0.00000   100%     -    0s
         0     0    0.00000    0   20    4.73228    0.00000   100%     -    0s
         0     0    0.00000    0   20    4.73228    0.00000   100%     -    0s
         0     0    0.00000    0   22    4.73228    0.00000   100%     -    0s
         0     0    0.00000    0   20    4.73228    0.00000   100%     -    0s
         0     0    0.00000    0   22    4.73228    0.00000   100%     -    0s
         0     0    0.00000    0   20    4.73228    0.00000   100%     -    0s
         0     0    0.00000    0   30    4.73228    0.00000   100%     -    0s
         0     0    0.00000    0   14    4.73228    0.00000   100%     -    0s
         0     0    0.00000    0   15    4.73228    0.00000   100%     -    0s
         0     0    0.00000    0   14    4.73228    0.00000   100%     -    0s
         0     0    0.00000    0   18    4.73228    0.00000   100%     -    0s
         0     0    0.00000    0   18    4.73228    0.00000   100%     -    0s
         0     0    0.00000    0   21    4.73228    0.00000   100%     -    0s
         0     0    0.00000    0   21    4.73228    0.00000   100%     -    0s
         0     0    0.00000    0   20    4.73228    0.00000   100%     -    0s
         0     0    0.00000    0   12    4.73228    0.00000   100%     -    0s
         0     0    0.00000    0   14    4.73228    0.00000   100%     -    0s
         0     0    0.00000    0   14    4.73228    0.00000   100%     -    0s
         0     0    0.00000    0   23    4.73228    0.00000   100%     -    0s
         0     0    0.00000    0   18    4.73228    0.00000   100%     -    0s
         0     0    0.00000    0   18    4.73228    0.00000   100%     -    0s
         0     0    0.00000    0   18    4.73228    0.00000   100%     -    0s
         0     0    0.00000    0   24    4.73228    0.00000   100%     -    0s
         0     0    0.00000    0   13    4.73228    0.00000   100%     -    0s
         0     0    0.00000    0   22    4.73228    0.00000   100%     -    0s
         0     0    0.00000    0   18    4.73228    0.00000   100%     -    0s
         0     0    0.00000    0   26    4.73228    0.00000   100%     -    0s
         0     0    0.00000    0   24    4.73228    0.00000   100%     -    0s
         0     0    0.00000    0   24    4.73228    0.00000   100%     -    0s
         0     0    0.00000    0   24    4.73228    0.00000   100%     -    0s
         0     0    0.00000    0   27    4.73228    0.00000   100%     -    0s
         0     0    0.00000    0   18    4.73228    0.00000   100%     -    0s
         0     0    0.00000    0   20    4.73228    0.00000   100%     -    0s
         0     0    0.00000    0   20    4.73228    0.00000   100%     -    0s
         0     0    0.00000    0   22    4.73228    0.00000   100%     -    0s
         0     0    0.00000    0   22    4.73228    0.00000   100%     -    0s
         0     0    0.00000    0   22    4.73228    0.00000   100%     -    0s
         0     0    0.00000    0   18    4.73228    0.00000   100%     -    0s
         0     0    0.00000    0   18    4.73228    0.00000   100%     -    0s
         0     0    0.00000    0   18    4.73228    0.00000   100%     -    0s
         0     0    0.00000    0   20    4.73228    0.00000   100%     -    0s
         0     0    0.00000    0   16    4.73228    0.00000   100%     -    0s
         0     0    0.00000    0   22    4.73228    0.00000   100%     -    0s
         0     0    0.00000    0   20    4.73228    0.00000   100%     -    0s
         0     0    0.00000    0   22    4.73228    0.00000   100%     -    0s
         0     0    0.00000    0   18    4.73228    0.00000   100%     -    0s
         0     0    0.00000    0   24    4.73228    0.00000   100%     -    0s
         0     0    0.00000    0   14    4.73228    0.00000   100%     -    0s
         0     0    0.00000    0   18    4.73228    0.00000   100%     -    0s
         0     0    0.00000    0   18    4.73228    0.00000   100%     -    0s
         0     0    0.00000    0   20    4.73228    0.00000   100%     -    0s
         0     0    0.00000    0   20    4.73228    0.00000   100%     -    0s
         0     0    0.00000    0   18    4.73228    0.00000   100%     -    0s
         0     0    0.00000    0   18    4.73228    0.00000   100%     -    0s
         0     0    0.00000    0   18    4.73228    0.00000   100%     -    0s
         0     0    0.00000    0   14    4.73228    0.00000   100%     -    0s
         0     0    0.00000    0   16    4.73228    0.00000   100%     -    0s
         0     0    0.00000    0   16    4.73228    0.00000   100%     -    0s
         0     0    0.00000    0   22    4.73228    0.00000   100%     -    0s
         0     0    0.00000    0   22    4.73228    0.00000   100%     -    0s
         0     0    0.00000    0   24    4.73228    0.00000   100%     -    0s
         0     0    0.00000    0   20    4.73228    0.00000   100%     -    0s
         0     0    0.00000    0   20    4.73228    0.00000   100%     -    0s
         0     0    0.00000    0   20    4.73228    0.00000   100%     -    0s
         0     0    0.00000    0   20    4.73228    0.00000   100%     -    0s
         0     0    0.00000    0   20    4.73228    0.00000   100%     -    0s
         0     0    0.00000    0   26    4.73228    0.00000   100%     -    0s
         0     0    0.00000    0   22    4.73228    0.00000   100%     -    1s
         0     0    0.00000    0   22    4.73228    0.00000   100%     -    1s
         0     0    0.00000    0   14    4.73228    0.00000   100%     -    1s
         0     0    0.00000    0   22    4.73228    0.00000   100%     -    1s
         0     0    0.00000    0   22    4.73228    0.00000   100%     -    1s
         0     0    0.00000    0   24    4.73228    0.00000   100%     -    1s
         0     0    0.00000    0   24    4.73228    0.00000   100%     -    1s
         0     0    0.00000    0   26    4.73228    0.00000   100%     -    1s
         0     0    0.00000    0   14    4.73228    0.00000   100%     -    1s
         0     0    0.00000    0   26    4.73228    0.00000   100%     -    1s
         0     0    0.00000    0   22    4.73228    0.00000   100%     -    1s
         0     0    0.00000    0   18    4.73228    0.00000   100%     -    1s
         0     0    0.00000    0   18    4.73228    0.00000   100%     -    1s
         0     0    0.00000    0   20    4.73228    0.00000   100%     -    1s
         0     0    0.00000    0   20    4.73228    0.00000   100%     -    1s
         0     0    0.00000    0   22    4.73228    0.00000   100%     -    1s
         0     0    0.00000    0   22    4.73228    0.00000   100%     -    1s
         0     0    0.00000    0   18    4.73228    0.00000   100%     -    1s
         0     0    0.00000    0   18    4.73228    0.00000   100%     -    1s
         0     0    0.00000    0   20    4.73228    0.00000   100%     -    1s
         0     0    0.00000    0   20    4.73228    0.00000   100%     -    1s
         0     0    0.00000    0   22    4.73228    0.00000   100%     -    1s
         0     0    0.00000    0   20    4.73228    0.00000   100%     -    1s
         0     0    0.00000    0   24    4.73228    0.00000   100%     -    1s
         0     0    0.00000    0   20    4.73228    0.00000   100%     -    1s
         0     0    0.00000    0   18    4.73228    0.00000   100%     -    1s
         0     0    0.00000    0   18    4.73228    0.00000   100%     -    1s
         0     0    0.00000    0   24    4.73228    0.00000   100%     -    1s
         0     0    0.00000    0   14    4.73228    0.00000   100%     -    1s
         0     0    0.00000    0   20    4.73228    0.00000   100%     -    1s
         0     0    0.00000    0   18    4.73228    0.00000   100%     -    1s
         0     0    0.00000    0   20    4.73228    0.00000   100%     -    1s
         0     0    0.00000    0   19    4.73228    0.00000   100%     -    1s
         0     0    0.00000    0   28    4.73228    0.00000   100%     -    1s
         0     0    0.00000    0   14    4.73228    0.00000   100%     -    1s
         0     0    0.00000    0   20    4.73228    0.00000   100%     -    1s
         0     0    0.00000    0   16    4.73228    0.00000   100%     -    1s
         0     0    0.00000    0   24    4.73228    0.00000   100%     -    1s
         0     0    0.00000    0   24    4.73228    0.00000   100%     -    1s
         0     0    0.00000    0   24    4.73228    0.00000   100%     -    1s
         0     0    0.00000    0   22    4.73228    0.00000   100%     -    1s
         0     0    0.00000    0   22    4.73228    0.00000   100%     -    1s
         0     0    0.00000    0   16    4.73228    0.00000   100%     -    1s
         0     0    0.00000    0   26    4.73228    0.00000   100%     -    1s
         0     0    0.00000    0   24    4.73228    0.00000   100%     -    1s
         0     0    0.00000    0   18    4.73228    0.00000   100%     -    1s
         0     0    0.00000    0   13    4.73228    0.00000   100%     -    1s
         0     0    0.00000    0   22    4.73228    0.00000   100%     -    1s
         0     0    0.00000    0   20    4.73228    0.00000   100%     -    1s
         0     0    0.00000    0   24    4.73228    0.00000   100%     -    1s
         0     0    0.00000    0   24    4.73228    0.00000   100%     -    1s
         0     0    0.00000    0   22    4.73228    0.00000   100%     -    1s
         0     0    0.00000    0   20    4.73228    0.00000   100%     -    1s
         0     0    0.00000    0   20    4.73228    0.00000   100%     -    1s
         0     0    0.00000    0   20    4.73228    0.00000   100%     -    1s
         0     0    0.00000    0   26    4.73228    0.00000   100%     -    1s
         0     0    0.00000    0   23    4.73228    0.00000   100%     -    1s
         0     0    0.00000    0   24    4.73228    0.00000   100%     -    1s
         0     0    0.00000    0   24    4.73228    0.00000   100%     -    1s
         0     0    0.00000    0   20    4.73228    0.00000   100%     -    1s
         0     0    0.00000    0   20    4.73228    0.00000   100%     -    1s
         0     0    0.00000    0   25    4.73228    0.00000   100%     -    1s
         0     0    0.00000    0   24    4.73228    0.00000   100%     -    1s
         0     0    0.00000    0   26    4.73228    0.00000   100%     -    1s
         0     0    0.00000    0   18    4.73228    0.00000   100%     -    1s
         0     0    0.00000    0   22    4.73228    0.00000   100%     -    1s
         0     0    0.00000    0   22    4.73228    0.00000   100%     -    1s
         0     0    0.00000    0   24    4.73228    0.00000   100%     -    1s
         0     0    0.00000    0   24    4.73228    0.00000   100%     -    1s
         0     0    0.00000    0   24    4.73228    0.00000   100%     -    1s
         0     0    0.00000    0   18    4.73228    0.00000   100%     -    1s
         0     0    0.00000    0   17    4.73228    0.00000   100%     -    1s
         0     0    0.00000    0   14    4.73228    0.00000   100%     -    1s
         0     0    0.00000    0   22    4.73228    0.00000   100%     -    1s
         0     0    0.00000    0   18    4.73228    0.00000   100%     -    1s
         0     0    0.00000    0   18    4.73228    0.00000   100%     -    1s
         0     0    0.00000    0   18    4.73228    0.00000   100%     -    1s
         0     0    0.00000    0   20    4.73228    0.00000   100%     -    1s
         0     0    0.00000    0   20    4.73228    0.00000   100%     -    1s
         0     0    0.00000    0   26    4.73228    0.00000   100%     -    1s
         0     0    0.00000    0   18    4.73228    0.00000   100%     -    1s
         0     0    0.00000    0   22    4.73228    0.00000   100%     -    1s
         0     0    0.00000    0   14    4.73228    0.00000   100%     -    1s
         0     0    0.00000    0   26    4.73228    0.00000   100%     -    1s
         0     0    0.00000    0   20    4.73228    0.00000   100%     -    1s
         0     0    0.00000    0   20    4.73228    0.00000   100%     -    1s
         0     0    0.00000    0   20    4.73228    0.00000   100%     -    1s
         0     0    0.00000    0   18    4.73228    0.00000   100%     -    1s
         0     0    0.00000    0   18    4.73228    0.00000   100%     -    1s
         0     0    0.00000    0   28    4.73228    0.00000   100%     -    1s
         0     0    0.00000    0   28    4.73228    0.00000   100%     -    1s
         0     0    0.00000    0   26    4.73228    0.00000   100%     -    1s
         0     0    0.00000    0   22    4.73228    0.00000   100%     -    1s
         0     0    0.00000    0   16    4.73228    0.00000   100%     -    1s
         0     0    0.00000    0   16    4.73228    0.00000   100%     -    1s
         0     0    0.00000    0   24    4.73228    0.00000   100%     -    1s
         0     0    0.00000    0   14    4.73228    0.00000   100%     -    1s
         0     2    0.00000    0   22    4.73228    0.00000   100%     -    1s
    H   12    12                       4.7322747    0.00000   100%   117    2s
    H   28    28                       4.7322747    0.00000   100%   127    2s
    H  118    96                       4.4736047    0.00000   100%   114    2s
    H  118    96                       4.4642094    0.00000   100%   114    2s
    H  125   103                       4.3397940    0.00000   100%   114    2s
    H  142   114                       4.1094190    0.00000   100%   104    2s
    H  154   116                       4.1094189    0.00000   100%   102    2s
    H  167   129                       4.1094189    0.00000   100%   105    2s
    H  203   151                       3.8765584    0.00000   100%  97.4    2s
    H  206   154                       3.8765583    0.00000   100%   101    2s
    H  311   217                       3.6557512    0.00000   100%  86.0    3s
       340   237    1.72967   24   31    3.65575    0.00000   100%  78.7    5s
    H  379   248                       3.6140472    0.00000   100%  70.6    7s
    H  381   236                       3.6140472    0.00000   100%   203    7s
    H  381   223                       3.6039128    0.00000   100%   203    7s
    H  390   216                       3.4504292    0.00000   100%   205    7s
    H  391   205                       3.4504291    0.00000   100%   205    7s
    H  393   195                       3.4269078    0.00000   100%   208    8s
    H  396   187                       3.2715723    0.00000   100%   208    8s
    H  397   178                       3.2715722    0.00000   100%   209    8s
    H  397   168                       3.2715721    0.00000   100%   209    8s
    H  412   169                       3.2715720    0.00000   100%   209    8s
    H  415   162                       3.0529002    0.00000   100%   208    8s
    H  415   154                       3.0528999    0.00000   100%   208    8s
    H  415   146                       3.0528998    0.00000   100%   208    8s
    H  424   142                       2.9468645    0.00000   100%   208    8s
    H  425   135                       2.9468643    0.00000   100%   207    8s
       501   158    2.78916   32   23    2.94686    0.00000   100%   203   10s
    H  553   154                       2.4136724    0.00000   100%   195   10s
    H  557   145                       2.4063665    0.00000   100%   194   10s
    H  559   137                       2.3517752    0.00000   100%   193   10s
    H  563   130                       2.3517752    0.00000   100%   192   10s
    H  573   119                       2.3517751    0.00000   100%   189   10s
    H  576   116                       2.3517751    0.00000   100%   191   10s
    H  576   111                       2.3517751    0.00000   100%   191   10s
    H  579   112                       2.3517751    0.00000   100%   193   10s
    H  588   120                       2.3517751    0.00000   100%   194   10s
    H  614   137                       2.3054184    0.00000   100%   190   11s
    H  619   138                       2.3054180    0.00000   100%   189   11s
    H  626   137                       2.3054176    0.00000   100%   188   11s
    H  628   139                       2.3054176    0.00000   100%   189   11s
    H  684   165                       2.3054176    0.00000   100%   187   11s
    H  689   170                       2.3054176    0.00000   100%   187   11s
    H  753   183                       2.3054176    0.00000   100%   184   11s
    H  931   294                       2.3054176    0.00000   100%   173   12s
    H  972   324                       2.3054176    0.00000   100%   177   13s
    H 1061   377                       2.3054175    0.00520   100%   176   13s
    H 1067   379                       2.3054175    0.00520   100%   176   13s
      1357   485    1.08359   23   31    2.30542    0.05049  97.8%   177   15s
      2808   901    2.23112   34   23    2.30542    0.56929  75.3%   162   20s
      4636  1168    1.97592   25   31    2.30542    0.95912  58.4%   144   25s
    H 6585  1215                       2.2282644    1.22058  45.2%   133   29s
      6632  1204    1.68022   27   26    2.22826    1.22919  44.8%   133   30s
    H 7507  1120                       2.2282643    1.35855  39.0%   129   32s
    H 7604  1110                       2.2282643    1.37780  38.2%   129   32s
      8684   920     cutoff   36         2.22826    1.54394  30.7%   126   35s
    
    Cutting planes:
      Gomory: 2
      MIR: 1
      Flow cover: 12
    
    Explored 10637 nodes (1310921 simplex iterations) in 39.35 seconds (40.75 work units)
    Thread count was 1 (of 96 available processors)
    
    Solution count 10: 2.22826 2.30542 2.94686 ... 5.9907
    
    Optimal solution found (tolerance 1.00e-06)
    Best objective 2.228264340760e+00, best bound 2.228264340760e+00, gap 0.0000%
    
    User-callback calls 10789, time in user-callback 0.00 sec

... Solving fixed model...

    Gurobi Optimizer version 13.0.0 build v13.0.0rc1 (linux64 - "Oracle Linux Server 9.7")
    
    CPU model: AMD EPYC 7643 48-Core Processor, instruction set [SSE2|AVX|AVX2]
    Thread count: 48 physical cores, 96 logical processors, using up to 1 threads
    
    Non-default parameters:
    TimeLimit  300
    MIPGap  1e-06
    LogToConsole  0
    NonConvex  2
    Threads  1
    
    Optimize a model with 993 rows, 507 columns and 2241 nonzeros (Min)
    Model fingerprint: 0x7ffbeee6
    Model has 15 linear objective coefficients
    Model has 60 quadratic constraints
    Coefficient statistics:
      Matrix range     [1e+00, 9e+01]
      QMatrix range    [4e-02, 2e+00]
      Objective range  [1e+00, 1e+00]
      Bounds range     [1e+00, 9e+01]
      RHS range        [1e+00, 1e+00]
    Presolve removed 990 rows and 480 columns
    Presolve time: 0.00s
    Presolved: 74 rows, 90 columns, 185 nonzeros
    Presolved model has 15 second-order cone constraints
    Ordering time: 0.00s
    
    Barrier statistics:
     AA' NZ     : 6.120e+02
     Factor NZ  : 8.640e+02
     Factor Ops : 1.360e+04 (less than 1 second per iteration)
     Threads    : 1
    
                      Objective                Residual
    Iter       Primal          Dual         Primal    Dual     Compl     Time
       0   7.01368495e+02 -5.39328467e+02  1.01e+01 4.47e+00  1.48e+01     0s
       1   6.41359694e+01 -1.00287571e+02  1.11e-05 4.92e-06  1.29e+00     0s
       2   4.81457094e+00 -2.37703934e+01  1.36e-07 1.12e-06  2.25e-01     0s
       3   2.59798786e+00 -6.62969929e+00  7.36e-09 3.77e-07  7.27e-02     0s
       4   2.30046198e+00 -4.88253969e-01  2.18e-14 1.16e-07  2.20e-02     0s
       5   2.23261584e+00  1.93506287e+00  2.51e-14 1.23e-08  2.34e-03     0s
       6   2.22910728e+00  2.22432156e+00  1.64e-13 5.95e-14  3.77e-05     0s
       7   2.22828727e+00  2.22809428e+00  1.25e-11 3.33e-14  1.52e-06     0s
       8   2.22826504e+00  2.22826115e+00  5.35e-11 2.08e-13  3.07e-08     0s
       9   2.22826436e+00  2.22826422e+00  2.03e-09 2.25e-11  1.15e-09     0s
    
    Barrier solved model in 9 iterations and 0.00 seconds (0.00 work units)
    Optimal objective 2.22826436e+00
    
    
    User-callback calls 0, time in user-callback 0.00 sec
    Warning: to get QCP duals, please set parameter QCPDual to 1

--- Reading solution for model GAMS_MODEL
***
*** Solver did not provide marginals for model GAMS_MODEL
***
--- Executing after solve: elapsed 0:00:39.403
--- model.gms(3479) 4 Mb
--- model.gms(5091) 6 Mb
--- Putfile results /local/scratch/a/sgusev/repos/k_means/data/gams_gurobi_gdp.hull_exact/no_mode/2026-02-14_22-29-45/original/results.dat
--- Putfile statresults /local/scratch/a/sgusev/repos/k_means/data/gams_gurobi_gdp.hull_exact/no_mode/2026-02-14_22-29-45/original/resultsstat.dat
*** Status: Normal completion
--- Job model.gms Stop 02/14/26 22:30:25 elapsed 0:00:39.406
Original problem solved. Time taken: 40.00246715545654 seconds
Original objective value: 2.228264362406207
